Route #1: 1 29 16 8 21 54 13 49 57 15 6 14 1
Route #2: 1 52 11 9 44 30 62 7 33 56 1
Route #3: 1 40 28 24 5 12 50 36 26 32 1
Route #4: 1 20 19 31 47 46 48 22 42 55 61 1
Route #5: 1 53 37 17 38 23 45 3 39 1
Route #6: 1 41 58 59 18 51 27 35 1
Route #7: 1 2 10 25 4 43 1
Route #8: 1 60 34 1
cost 1585.8918029815793
